
Gurobi 13.0.1 (mac64[arm], Python) logging started Fri Apr 17 12:53:59 2026

Set parameter LogToConsole to value 0
Set parameter Username
Set parameter LicenseID to value 2799845
Set parameter LogFile to value "/Users/monitsharma/SMU-Quantum-Repos/quantum-optimization-benchmarks/classical_solutions/results/mdkp/logs/hpp__hp1_solver.log"
Academic license - for non-commercial use only - expires 2027-03-30
Set parameter TimeLimit to value 3600
Set parameter Threads to value 0
Set parameter MIPGap to value 0
Set parameter MIPFocus to value 0
Set parameter DisplayInterval to value 5
Gurobi Optimizer version 13.0.1 build v13.0.1rc0 (mac64[arm] - Darwin 25.4.0 25E253)

CPU model: Apple M3 Pro
Thread count: 12 physical cores, 12 logical processors, using up to 12 threads

Non-default parameters:
TimeLimit  3600
MIPGap  0
LogToConsole  0

Optimize a model with 4 rows, 28 columns and 96 nonzeros (Max)
Model fingerprint: 0x2b7a18fa
Model has 28 linear objective coefficients
Variable types: 0 continuous, 28 integer (28 binary)
Coefficient statistics:
  Matrix range     [1e+00, 9e+01]
  Objective range  [2e+01, 1e+03]
  Bounds range     [1e+00, 1e+00]
  RHS range        [2e+02, 2e+02]

Found heuristic solution: objective 3040.0000000
Presolve time: 0.00s
Presolved: 4 rows, 28 columns, 96 nonzeros
Variable types: 0 continuous, 28 integer (28 binary)

Root relaxation: objective 3.472346e+03, 6 iterations, 0.00 seconds (0.00 work units)

    Nodes    |    Current Node    |     Objective Bounds      |     Work
 Expl Unexpl |  Obj  Depth IntInf | Incumbent    BestBd   Gap | It/Node Time

     0     0 3472.34588    0    4 3040.00000 3472.34588  14.2%     -    0s
H    0     0                    3122.0000000 3472.34588  11.2%     -    0s
H    0     0                    3279.0000000 3472.34588  5.90%     -    0s
H    0     0                    3388.0000000 3472.34588  2.49%     -    0s
H    0     0                    3404.0000000 3472.34588  2.01%     -    0s
H    0     0                    3418.0000000 3451.16358  0.97%     -    0s
     0     0 3418.00000    0    7 3418.00000 3418.00000  0.00%     -    0s

Cutting planes:
  Cover: 2

Explored 1 nodes (10 simplex iterations) in 0.01 seconds (0.00 work units)
Thread count was 12 (of 12 available processors)

Solution count 6: 3418 3404 3388 ... 3040

Optimal solution found (tolerance 0.00e+00)
Best objective 3.418000000000e+03, best bound 3.418000000000e+03, gap 0.0000%
